c This is an instance of the exact track of PACE 2020 Challenge, see https://pacechallenge.org/2020/ 
c TYPE: biology 
c ORIGIN: http://www.genome.jp/kegg/ 
c DESCRIPTION: This is a graph derived from a biological pathway map. The nodes are genes (also representing their associated proteins), enzymes, or chemical compounds, and there is an edge between two nodes if they influence each other (such as a gene modifying the expression of another gene) or take part in a common chemical reaction. This graph is a connected part of the map "myi00240 Pyrimidine metabolism - Mizuhopecten yessoensis (Yesso scallop)". 
p tdp 59 154
57 39
57 58
57 30
57 9
57 29
57 40
7 11
7 26
7 13
7 12
7 9
7 10
7 6
7 25
11 14
11 9
11 8
11 15
11 10
11 6
31 29
31 32
23 22
23 21
23 59
23 25
39 58
39 27
39 37
39 28
39 40
45 44
45 42
26 27
26 30
26 9
26 8
26 28
26 29
26 25
58 27
58 36
58 41
58 28
58 43
58 42
27 30
27 9
27 29
27 40
36 41
36 37
36 34
36 35
36 40
36 43
36 42
36 38
16 14
16 15
16 10
16 17
22 59
22 18
22 24
22 19
22 20
41 48
41 47
41 51
41 50
41 40
41 43
41 42
14 13
14 12
14 10
14 17
48 51
48 50
48 49
48 46
21 59
21 18
21 24
21 19
21 20
37 34
37 35
37 38
13 9
13 8
13 15
13 10
13 6
59 18
59 24
59 17
59 19
34 56
34 35
34 38
47 51
47 50
47 49
47 46
51 52
53 54
53 52
30 33
30 9
30 28
30 29
50 52
2 3
2 1
44 43
44 42
18 17
18 20
12 9
12 8
12 15
12 10
12 6
56 35
56 38
56 20
4 5
4 3
9 8
9 28
9 29
9 10
9 6
8 10
8 6
8 25
28 29
28 40
15 10
15 17
35 20
54 55
10 6
10 17
40 43
40 42
6 5
43 42
24 25
17 19
38 20
19 20
